8163173411397221773505,12,1,2,010,10,1,2,010,8,1,2,010,11,1,2,05,12,1,2,08,11,1,2,03,8,1,2,010,7,1,2,06,4,1,2,011,2,1,2,011,14,1,2,02,8,1,2,014,11,1,2,015,2,1,2,02,3,1,2,08,13,1,2,012,5,1,2,09,14,1,2,08,15,1,2,04,14,1,2,07,7,1,2,01,5,1,2,013,3,1,2,02,7,1,2,01,11,1,2,011,13,1,2,08,15,1,2,014,12,1,2,04,4,1,2,07,10,1,2,02,13,1,2,06,15,1,2,05,12,1,2,014,15,1,2,012,12,1,2,03,2,1,2,01,14,1,2,03,6,1,2,06,7,1,2,014,5,1,2,012,1,1,2,013,12,1,2,04,1,1,2,014,11,1,2,01,4,1,2,06,15,1,2,013,13,1,2,02,10,1,2,010,2,1,2,02,11,1,2,0